c Random generated cnf formula, satisfiable: true
p cnf 10 50
9 2 -1 0
7 5 -8 0
3 -4 -8 0
7 -1 9 0
9 8 7 0
1 -6 4 0
-6 3 -5 0
9 -3 -5 0
4 8 -1 0
-6 10 8 0
10 6 3 0
5 -8 -4 0
9 8 6 0
3 -10 8 0
9 -4 3 0
8 2 -9 0
-6 4 -2 0
4 2 7 0
-9 -2 5 0
5 -6 10 0
6 -3 -2 0
8 6 3 0
3 -10 -1 0
-5 -6 9 0
2 10 -9 0
-5 2 -6 0
7 5 -4 0
-3 10 8 0
3 1 4 0
-8 -4 -1 0
6 -9 -4 0
6 2 3 0
-6 -8 -2 0
1 2 8 0
4 8 -10 0
-10 6 -7 0
10 -1 -4 0
7 1 -4 0
-8 4 7 0
6 -5 10 0
-6 -7 8 0
-4 3 -2 0
4 -10 -2 0
3 -6 5 0
-9 -4 -6 0
-5 -10 -1 0
-6 -3 -1 0
-5 -4 2 0
-4 2 -6 0
-6 4 2 0
